min: c;

c = 2.69103689835164 * u1_t7_h4 + 3.72469211324209 * u1_t7_h5 + 4.23606096953185 * u1_t5_h6 + 4.23606096953185 * u1_t7_h6 + 3.76982597637102 * u1_t5_h7 + 3.76982597637102 * u1_t7_h7 + 3.76982597637102 * u1_t9_h7 + 5.72082718782553 * u1_t5_h8 + 5.72082718782553 * u1_t7_h8 + 5.72082718782553 * u1_t9_h8 + 5.72082718782553 * u1_t10_h8 + 4.83248594335076 * u1_t5_h9 + 4.83248594335076 * u1_t7_h9 + 4.83248594335076 * u1_t9_h9 + 4.83248594335076 * u1_t10_h9 + 5.35494984143703 * u1_t5_h10 + 5.35494984143703 * u1_t7_h10 + 5.35494984143703 * u1_t9_h10 + 5.35494984143703 * u1_t10_h10 + 3.92629797017084 * u1_t5_h11 + 3.92629797017084 * u1_t9_h11 + 3.92629797017084 * u1_t10_h11 + 6.44199481544875 * u1_t4_h12 + 6.44199481544875 * u1_t5_h12 + 6.44199481544875 * u1_t8_h12 + 6.44199481544875 * u1_t9_h12 + 6.44199481544875 * u1_t10_h12 + 4.44192254105988 * u1_t4_h13 + 4.44192254105988 * u1_t8_h13 + 4.44192254105988 * u1_t9_h13 + 4.44192254105988 * u1_t10_h13 + 5.44557549553553 * u1_t4_h14 + 5.44557549553553 * u1_t8_h14 + 5.44557549553553 * u1_t9_h14 + 5.44557549553553 * u1_t10_h14 + 6.47286052388004 * u1_t4_h15 + 6.47286052388004 * u1_t8_h15 + 5.6332372171812 * u1_t4_h16 + 5.6332372171812 * u1_t8_h16 + 5.97985647029479 * u1_t4_h17 + 5.97985647029479 * u1_t8_h17 + 6.34532814732582 * u1_t2_h18 + 6.34532814732582 * u1_t4_h18 + 6.34532814732582 * u1_t6_h18 + 6.34532814732582 * u1_t8_h18 + 5.9159206178663 * u1_t2_h19 + 5.9159206178663 * u1_t3_h19 + 5.9159206178663 * u1_t4_h19 + 5.9159206178663 * u1_t6_h19 + 5.15122645527786 * u1_t1_h20 + 5.15122645527786 * u1_t2_h20 + 5.15122645527786 * u1_t3_h20 + 5.15122645527786 * u1_t4_h20 + 5.15122645527786 * u1_t6_h20 + 5.57408596736754 * u1_t1_h21 + 5.57408596736754 * u1_t2_h21 + 5.57408596736754 * u1_t3_h21 + 5.86035034431304 * u1_t1_h22 + 5.86035034431304 * u1_t2_h22 + 5.51694859503733 * u1_t1_h23 + 5.51694859503733 * u1_t2_h23;
0 <= u1_t1_h20 <= 1;
0 <= u1_t1_h21 <= 1;
0 <= u1_t1_h22 <= 1;
0 <= u1_t1_h23 <= 1;
u1_t1_h20 + u1_t1_h21 + u1_t1_h22 + u1_t1_h23 = 1;
0 <= u1_t2_h18 <= 1;
0 <= u1_t2_h19 <= 1;
0 <= u1_t2_h20 <= 1;
0 <= u1_t2_h21 <= 1;
0 <= u1_t2_h22 <= 1;
0 <= u1_t2_h23 <= 1;
u1_t2_h18 + u1_t2_h19 + u1_t2_h20 + u1_t2_h21 + u1_t2_h22 + u1_t2_h23 = 2;
0 <= u1_t3_h19 <= 1;
0 <= u1_t3_h20 <= 1;
0 <= u1_t3_h21 <= 1;
u1_t3_h19 + u1_t3_h20 + u1_t3_h21 = 1;
0 <= u1_t4_h12 <= 1;
0 <= u1_t4_h13 <= 1;
0 <= u1_t4_h14 <= 1;
0 <= u1_t4_h15 <= 1;
0 <= u1_t4_h16 <= 1;
0 <= u1_t4_h17 <= 1;
0 <= u1_t4_h18 <= 1;
0 <= u1_t4_h19 <= 1;
0 <= u1_t4_h20 <= 1;
u1_t4_h12 + u1_t4_h13 + u1_t4_h14 + u1_t4_h15 + u1_t4_h16 + u1_t4_h17 + u1_t4_h18 + u1_t4_h19 + u1_t4_h20 = 3;
0 <= u1_t5_h6 <= 1;
0 <= u1_t5_h7 <= 1;
0 <= u1_t5_h8 <= 1;
0 <= u1_t5_h9 <= 1;
0 <= u1_t5_h10 <= 1;
0 <= u1_t5_h11 <= 1;
0 <= u1_t5_h12 <= 1;
u1_t5_h6 + u1_t5_h7 + u1_t5_h8 + u1_t5_h9 + u1_t5_h10 + u1_t5_h11 + u1_t5_h12 = 3;
0 <= u1_t6_h18 <= 1;
0 <= u1_t6_h19 <= 1;
0 <= u1_t6_h20 <= 1;
u1_t6_h18 + u1_t6_h19 + u1_t6_h20 = 2;
0 <= u1_t7_h4 <= 1;
0 <= u1_t7_h5 <= 1;
0 <= u1_t7_h6 <= 1;
0 <= u1_t7_h7 <= 1;
0 <= u1_t7_h8 <= 1;
0 <= u1_t7_h9 <= 1;
0 <= u1_t7_h10 <= 1;
u1_t7_h4 + u1_t7_h5 + u1_t7_h6 + u1_t7_h7 + u1_t7_h8 + u1_t7_h9 + u1_t7_h10 = 2;
0 <= u1_t8_h12 <= 1;
0 <= u1_t8_h13 <= 1;
0 <= u1_t8_h14 <= 1;
0 <= u1_t8_h15 <= 1;
0 <= u1_t8_h16 <= 1;
0 <= u1_t8_h17 <= 1;
0 <= u1_t8_h18 <= 1;
u1_t8_h12 + u1_t8_h13 + u1_t8_h14 + u1_t8_h15 + u1_t8_h16 + u1_t8_h17 + u1_t8_h18 = 2;
0 <= u1_t9_h7 <= 1;
0 <= u1_t9_h8 <= 1;
0 <= u1_t9_h9 <= 1;
0 <= u1_t9_h10 <= 1;
0 <= u1_t9_h11 <= 1;
0 <= u1_t9_h12 <= 1;
0 <= u1_t9_h13 <= 1;
0 <= u1_t9_h14 <= 1;
u1_t9_h7 + u1_t9_h8 + u1_t9_h9 + u1_t9_h10 + u1_t9_h11 + u1_t9_h12 + u1_t9_h13 + u1_t9_h14 = 3;
0 <= u1_t10_h8 <= 1;
0 <= u1_t10_h9 <= 1;
0 <= u1_t10_h10 <= 1;
0 <= u1_t10_h11 <= 1;
0 <= u1_t10_h12 <= 1;
0 <= u1_t10_h13 <= 1;
0 <= u1_t10_h14 <= 1;
u1_t10_h8 + u1_t10_h9 + u1_t10_h10 + u1_t10_h11 + u1_t10_h12 + u1_t10_h13 + u1_t10_h14 = 3;
